* ENCODING=ISO-8859-1
NAME          CPLEX
ROWS
 N  obj1    
 G  c1      
 G  c2      
 G  c3      
 G  c4      
 G  c5      
 G  c6      
 G  c7      
 G  c8      
 G  c9      
 G  c10     
 G  c11     
 G  c12     
 G  c13     
 G  c14     
 G  c15     
 G  c16     
 G  c17     
 G  c18     
 G  c19     
 G  c20     
 G  c21     
 G  c22     
 G  c23     
 G  c24     
 G  c25     
COLUMNS
    MARK0000  'MARKER'                 'INTORG'
    x1        obj1                            1
    x2        obj1                            1
    x2        c6                            938
    x2        c8                            104
    x2        c11                           891
    x2        c12                           863
    x3        obj1                            1
    x3        c4                            363
    x3        c11                           184
    x3        c17                           199
    x3        c19                           786
    x4        obj1                            1
    x4        c1                            889
    x4        c2                            357
    x4        c5                            591
    x4        c23                           310
    x5        obj1                            1
    x5        c1                            889
    x5        c2                            575
    x5        c3                            983
    x5        c15                           296
    x5        c17                           557
    x5        c21                           864
    x5        c23                           614
    x6        obj1                            1
    x6        c12                           720
    x7        obj1                            1
    x7        c17                           784
    x7        c24                           213
    x8        obj1                            1
    x8        c5                            283
    x8        c11                           166
    x9        obj1                            1
    x10       obj1                            1
    x10       c20                           439
    x10       c21                           523
    x10       c22                           247
    x11       obj1                            1
    x11       c3                            486
    x11       c6                            113
    x11       c7                            794
    x12       obj1                            1
    x12       c7                            423
    x12       c14                           521
    x12       c17                           138
    x13       obj1                            1
    x13       c2                            496
    x13       c18                           359
    x13       c23                           104
    x14       obj1                            1
    x14       c4                            887
    x14       c6                            515
    x14       c8                            267
    x14       c17                           843
    x15       obj1                            1
    x15       c24                           546
    x16       obj1                            1
    x16       c20                           519
    x16       c21                           221
    x17       obj1                            1
    x17       c5                            335
    x17       c11                           211
    x17       c13                           462
    x17       c15                           628
    x17       c19                           852
    x17       c24                           109
    x18       obj1                            1
    x18       c14                           534
    x18       c22                           900
    x18       c25                           162
    x19       obj1                            1
    x20       obj1                            1
    x20       c2                            563
    x20       c3                            432
    x20       c5                            386
    x20       c6                            267
    x20       c9                            791
    x20       c18                           876
    x20       c23                           530
    x20       c25                           976
    x21       obj1                            1
    x21       c3                            490
    x21       c12                           982
    x22       obj1                            1
    x23       obj1                            1
    x23       c19                           338
    x24       obj1                            1
    x24       c2                            180
    x24       c18                           875
    x25       obj1                            1
    x25       c16                           482
    x26       obj1                            1
    x26       c1                            707
    x26       c4                            876
    x26       c10                           762
    x27       obj1                            1
    x27       c12                           401
    x27       c21                           473
    x28       obj1                            1
    x28       c4                            729
    x28       c23                           826
    x29       obj1                            1
    x29       c20                           913
    x30       obj1                            1
    x31       obj1                            1
    x31       c1                            790
    x31       c2                            345
    x31       c14                           953
    x31       c15                           468
    x31       c22                           220
    x32       obj1                            1
    x32       c6                            586
    x32       c7                            304
    x32       c12                           967
    x32       c14                           136
    x33       obj1                            1
    x33       c9                            810
    x34       obj1                            1
    x34       c9                            544
    x35       obj1                            1
    x35       c13                           812
    x35       c19                           914
    x35       c20                           123
    x36       obj1                            1
    x36       c7                            743
    x37       obj1                            1
    x37       c12                           656
    x37       c14                           651
    x37       c15                           510
    x37       c16                           558
    x37       c17                           777
    x38       obj1                            1
    x38       c22                           988
    x39       obj1                            1
    x39       c1                            228
    x39       c16                           585
    x39       c25                           338
    x40       obj1                            1
    x40       c5                            360
    x40       c10                           885
    x40       c23                           355
    x41       obj1                            1
    x41       c13                           471
    x41       c15                           427
    x41       c23                           268
    x42       obj1                            1
    x42       c11                           454
    x42       c24                           826
    x43       obj1                            1
    x43       c8                            816
    x43       c13                           935
    x43       c21                           720
    x44       obj1                            1
    x44       c1                            765
    x44       c13                           796
    x44       c22                           234
    x45       obj1                            1
    x45       c11                           979
    x46       obj1                            1
    x46       c11                           997
    x46       c13                           359
    x46       c24                           704
    x47       obj1                            1
    x47       c1                            101
    x47       c5                            574
    x48       obj1                            1
    x48       c5                            135
    x48       c10                           316
    x48       c12                           893
    x48       c21                           129
    x49       obj1                            1
    x49       c6                            454
    x50       obj1                            1
    x50       c3                            630
    x50       c4                            950
    x50       c6                            454
    x50       c7                            547
    x50       c25                           804
    MARK0001  'MARKER'                 'INTEND'
RHS
    rhs       c1                           2185
    rhs       c2                           1258
    rhs       c3                           1511
    rhs       c4                           1903
    rhs       c5                           1332
    rhs       c6                           1664
    rhs       c7                           1406
    rhs       c8                            594
    rhs       c9                           1073
    rhs       c10                           982
    rhs       c11                          1941
    rhs       c12                          2741
    rhs       c13                          1918
    rhs       c14                          1398
    rhs       c15                          1165
    rhs       c16                           813
    rhs       c17                          1649
    rhs       c18                          1055
    rhs       c19                          1445
    rhs       c20                           997
    rhs       c21                          1465
    rhs       c22                          1295
    rhs       c23                          1504
    rhs       c24                          1199
    rhs       c25                          1140
BOUNDS
 LI bnd       x1        0
 LI bnd       x2        0
 LI bnd       x3        0
 LI bnd       x4        0
 LI bnd       x5        0
 LI bnd       x6        0
 LI bnd       x7        0
 LI bnd       x8        0
 LI bnd       x9        0
 LI bnd       x10       0
 LI bnd       x11       0
 LI bnd       x12       0
 LI bnd       x13       0
 LI bnd       x14       0
 LI bnd       x15       0
 LI bnd       x16       0
 LI bnd       x17       0
 LI bnd       x18       0
 LI bnd       x19       0
 LI bnd       x20       0
 LI bnd       x21       0
 LI bnd       x22       0
 LI bnd       x23       0
 LI bnd       x24       0
 LI bnd       x25       0
 LI bnd       x26       0
 LI bnd       x27       0
 LI bnd       x28       0
 LI bnd       x29       0
 LI bnd       x30       0
 LI bnd       x31       0
 LI bnd       x32       0
 LI bnd       x33       0
 LI bnd       x34       0
 LI bnd       x35       0
 LI bnd       x36       0
 LI bnd       x37       0
 LI bnd       x38       0
 LI bnd       x39       0
 LI bnd       x40       0
 LI bnd       x41       0
 LI bnd       x42       0
 LI bnd       x43       0
 LI bnd       x44       0
 LI bnd       x45       0
 LI bnd       x46       0
 LI bnd       x47       0
 LI bnd       x48       0
 LI bnd       x49       0
 LI bnd       x50       0
ENDATA
